20
5
5	5	5	5	5	5	5	5	5	5	5	5	5	5	5	5	5	5	5	5	
6	0	0	0	0	
0	0	40	0	0	
0	81	0	0	0	
0	0	0	37	0	
0	0	19	0	19	
0	0	40	0	0	
0	0	0	32	0	
55	0	0	0	0	
0	0	0	0	81	
0	9	0	0	0	
0	46	0	0	0	
0	0	0	0	65	
70	0	70	0	0	
0	0	0	55	0	
77	0	0	0	0	
0	0	21	0	0	
65	0	0	0	65	
64	0	0	0	0	
0	0	0	25	0	
0	15	0	0	0	
0	0	85	0	0	
40	0	0	0	40	
0	44	0	0	0	
0	0	0	24	0	
0	0	0	0	37	
89	0	0	0	0	
0	0	0	0	29	
0	83	0	0	0	
0	0	0	31	31	
0	0	84	0	0	
0	59	0	0	59	
0	0	0	38	0	
0	80	0	0	0	
0	0	30	0	0	
8	0	0	0	0	
80	0	0	0	0	
0	0	56	0	0	
0	77	0	0	0	
0	0	0	0	41	
0	0	0	97	0	
0	0	0	0	56	
91	0	91	0	0	
0	0	0	50	0	
0	0	71	0	0	
0	17	0	0	17	
0	40	0	0	0	
88	0	0	0	0	
0	0	0	0	59	
0	0	7	7	0	
0	0	0	80	0	
45	0	45	0	0	
0	29	0	0	0	
0	0	8	0	0	
0	0	0	0	77	
0	0	0	58	0	
0	0	36	0	0	
54	0	0	0	0	
0	0	0	96	0	
0	9	0	0	0	
0	0	0	0	10	
28	0	0	0	0	
0	0	73	0	0	
0	98	0	0	0	
0	0	0	92	0	
0	0	0	0	87	
70	0	0	0	0	
0	0	0	86	0	
0	0	27	0	0	
0	99	0	0	0	
0	0	0	0	96	
0	95	0	0	0	
59	0	59	0	0	
0	0	0	0	56	
0	0	0	85	0	
0	0	41	0	0	
0	81	0	0	0	
0	0	92	0	0	
0	0	0	0	32	
52	0	0	0	0	
0	0	0	39	0	
0	7	0	0	0	
0	0	22	0	22	
0	0	12	0	0	
88	0	0	0	0	
0	0	0	60	0	
0	0	0	45	0	
93	0	0	0	0	
0	0	69	0	0	
0	0	0	0	49	
0	27	0	0	0	
21	0	0	0	0	
0	84	0	0	84	
0	0	61	0	0	
0	0	0	68	0	
0	0	0	0	26	
0	82	0	0	0	
0	0	33	0	0	
0	0	0	0	71	
99	0	0	0	0	
0	0	0	44	0	